p td 35 105
6 4
7 2
10 7
10 8
11 8
12 4
13 10
13 4
13 11
15 14
16 12
16 14
16 8
16 15
16 2
16 7
17 12
17 7
18 14
18 7
18 5
18 15
18 16
18 13
19 18
19 15
20 1
20 2
20 15
21 16
21 15
22 10
22 3
22 6
22 13
22 4
22 2
23 20
23 17
23 4
24 2
24 15
24 19
24 11
24 13
25 5
25 23
25 20
25 21
26 13
26 7
26 10
26 11
26 24
26 18
27 19
27 7
27 2
28 18
28 27
28 12
28 25
29 12
29 8
29 28
29 18
29 16
30 24
30 18
30 22
30 10
30 7
30 29
30 15
31 6
31 10
31 2
31 15
31 14
31 1
31 29
31 21
32 23
32 24
33 22
33 8
33 27
33 14
33 23
33 16
34 30
34 7
34 31
34 25
34 27
34 1
34 26
34 13
34 23
34 10
35 4
35 23
35 7
35 11
35 27
